17	4	3
24	25	19	15	17	34	19	
0	0	0	0	0	8	3	8	5	2	1	3	2	3	4
5	9	0	6	0	5	8	7	3	9	7	3	5	10	17
2	7	6	0	0	7	10	10	10	10	8	3	6	9	13
7	4	0	9	0	8	6	2	2	4	2	3	7	15	17
7	8	10	10	0	10	1	7	8	4	9	2	8	17
175	0	1	1	2	1	1	1	9	5	3	2	12	17
250	6	0	5	2	10	9	10	6	2	8	1	17
25	2	10	0	9	2	9	8	2	8	7	2	9	17
75	0	8	0	10	9	5	2	10	7	6	2	11	17
50	0	0	0	9	2	7	7	8	4	10	2	14	17
75	6	0	1	7	6	5	10	7	4	4	1	17
150	0	3	0	0	9	3	3	8	8	4	1	17
3	0	0	1	8	6	10	2	3	1	9	1	17
10	3	0	8	0	9	9	4	1	8	10	2	16	17
3	8	8	0	0	6	10	6	2	7	10	1	17
10	9	0	0	0	1	3	5	1	9	8	1	17
0	0	0	0	0	5	7	10	7	4	7	0
